1000 3484 
1 10 1
1 991 1
1 2 1
1 6 1
1 8 1
1 9 1
1 11 1
1 12 1
1 540 1
1 17 1
1 32 1
1 38 1
1 40 1
1 57 1
1 59 1
1 74 1
1 87 1
1 101 1
1 129 1
1 139 1
1 152 1
1 209 1
1 675 1
1 594 1
1 267 1
1 277 1
1 282 1
1 285 1
1 559 1
1 754 1
1 325 1
1 725 1
1 347 1
1 359 1
1 420 1
1 439 1
2 3 1
2 12 1
2 992 1
2 974 1
2 5 1
2 7 1
2 10 1
2 16 1
2 17 1
2 20 1
2 22 1
2 23 1
2 26 1
2 931 1
2 28 1
2 30 1
2 31 1
2 35 1
2 43 1
2 45 1
2 55 1
2 864 1
2 688 1
2 685 1
2 83 1
2 92 1
2 105 1
2 113 1
2 625 1
2 144 1
2 156 1
2 180 1
2 547 1
2 191 1
2 968 1
2 565 1
2 230 1
2 242 1
2 511 1
2 987 1
2 288 1
2 303 1
2 647 1
2 318 1
2 321 1
2 324 1
2 581 1
2 686 1
2 348 1
2 362 1
2 379 1
2 556 1
2 394 1
2 395 1
2 404 1
2 414 1
2 433 1
2 516 1
2 456 1
2 831 1
3 4 1
3 13 1
3 993 1
3 42 1
3 75 1
3 988 1
3 664 1
3 142 1
3 522 1
3 635 1
3 977 1
3 451 1
4 14 1
4 994 1
4 5 1
4 21 1
4 22 1
4 41 1
4 47 1
4 57 1
4 76 1
4 98 1
4 225 1
4 231 1
4 248 1
4 517 1
4 272 1
4 506 1
4 276 1
4 796 1
4 901 1
4 365 1
4 386 1
4 857 1
4 415 1
4 862 1
4 495 1
4 941 1
5 6 1
5 15 1
5 995 1
5 21 1
5 22 1
5 782 1
5 42 1
5 771 1
5 52 1
5 71 1
5 700 1
5 86 1
5 89 1
5 96 1
5 161 1
5 758 1
5 185 1
5 215 1
5 683 1
5 305 1
5 363 1
5 367 1
5 371 1
5 401 1
5 990 1
5 588 1
5 451 1
6 7 1
6 16 1
6 996 1
6 76 1
6 239 1
7 8 1
7 17 1
7 997 1
7 11 1
7 27 1
7 33 1
7 37 1
7 62 1
7 682 1
7 81 1
7 91 1
7 826 1
7 637 1
7 170 1
7 869 1
7 220 1
7 813 1
7 770 1
7 747 1
7 532 1
7 375 1
7 415 1
7 425 1
7 516 1
7 471 1
7 932 1
7 493 1
8 9 1
8 18 1
8 998 1
8 10 1
8 13 1
8 15 1
8 19 1
8 954 1
8 28 1
8 32 1
8 38 1
8 51 1
8 62 1
8 81 1
8 137 1
8 747 1
8 157 1
8 856 1
8 205 1
8 206 1
8 223 1
8 230 1
8 598 1
8 255 1
8 951 1
8 297 1
8 312 1
8 353 1
8 872 1
8 889 1
8 562 1
8 560 1
8 587 1
8 662 1
9 19 1
9 999 1
9 10 1
9 17 1
9 32 1
9 34 1
9 67 1
9 72 1
9 559 1
9 90 1
9 803 1
9 97 1
9 121 1
9 189 1
9 761 1
9 222 1
9 247 1
9 569 1
9 295 1
9 321 1
9 356 1
9 895 1
9 461 1
10 20 1
10 1000 1
10 13 1
10 19 1
10 23 1
10 24 1
10 54 1
10 56 1
10 77 1
10 987 1
10 111 1
10 121 1
10 133 1
10 144 1
10 150 1
10 592 1
10 523 1
10 257 1
10 280 1
10 902 1
10 295 1
10 712 1
10 318 1
10 342 1
10 382 1
10 396 1
10 407 1
10 691 1
10 419 1
10 444 1
10 490 1
10 494 1
11 20 1
11 21 1
11 12 1
11 18 1
11 33 1
11 745 1
11 159 1
11 206 1
11 255 1
11 263 1
11 572 1
11 340 1
11 349 1
11 764 1
11 528 1
11 930 1
11 479 1
11 504 1
11 881 1
11 642 1
12 13 1
12 22 1
12 58 1
12 87 1
12 545 1
12 152 1
12 764 1
12 206 1
12 237 1
12 340 1
12 378 1
12 584 1
13 14 1
13 23 1
13 25 1
13 28 1
13 509 1
13 133 1
13 141 1
13 150 1
13 190 1
13 203 1
13 294 1
13 297 1
13 381 1
13 433 1
14 15 1
14 24 1
14 16 1
14 64 1
14 69 1
14 92 1
14 614 1
14 114 1
14 689 1
14 130 1
14 140 1
14 156 1
14 167 1
14 176 1
14 654 1
14 182 1
14 191 1
14 220 1
14 243 1
14 676 1
14 991 1
14 299 1
14 810 1
14 324 1
14 330 1
14 353 1
14 376 1
14 825 1
14 620 1
14 608 1
14 437 1
14 935 1
15 16 1
15 19 1
15 25 1
15 658 1
15 46 1
15 651 1
15 60 1
15 73 1
15 510 1
15 122 1
15 123 1
15 145 1
15 171 1
15 174 1
15 900 1
15 691 1
15 879 1
15 265 1
15 352 1
15 381 1
15 382 1
15 405 1
15 406 1
15 417 1
15 426 1
16 17 1
16 26 1
16 20 1
16 29 1
16 63 1
16 83 1
16 91 1
16 107 1
16 132 1
16 554 1
16 337 1
16 366 1
17 18 1
17 27 1
17 45 1
17 124 1
17 178 1
17 186 1
17 680 1
18 19 1
18 28 1
18 139 1
18 338 1
19 20 1
19 29 1
19 66 1
19 68 1
19 817 1
19 93 1
19 768 1
19 531 1
19 302 1
20 30 1
20 946 1
20 928 1
20 39 1
20 48 1
20 69 1
20 88 1
20 94 1
20 146 1
20 154 1
20 521 1
20 176 1
20 859 1
20 195 1
20 198 1
20 252 1
20 703 1
20 341 1
20 373 1
20 552 1
20 877 1
20 730 1
20 992 1
21 22 1
21 30 1
21 31 1
21 42 1
21 75 1
21 128 1
21 506 1
21 187 1
21 193 1
21 272 1
21 857 1
21 322 1
21 544 1
21 357 1
21 371 1
22 23 1
22 32 1
22 36 1
22 41 1
22 55 1
22 769 1
22 873 1
22 365 1
23 33 1
23 24 1
23 30 1
23 34 1
23 72 1
23 100 1
23 733 1
23 500 1
24 25 1
24 34 1
24 880 1
24 147 1
24 820 1
24 180 1
24 235 1
24 280 1
24 604 1
24 441 1
24 490 1
25 26 1
25 35 1
25 46 1
25 651 1
25 133 1
25 866 1
25 204 1
25 513 1
26 27 1
26 36 1
26 35 1
26 63 1
26 394 1
26 628 1
27 28 1
27 37 1
27 101 1
27 637 1
27 646 1
27 110 1
27 519 1
27 129 1
27 752 1
27 351 1
27 504 1
27 640 1
28 29 1
28 38 1
28 44 1
28 625 1
28 645 1
29 30 1
29 39 1
29 85 1
29 107 1
29 234 1
30 40 1
30 441 1
31 32 1
31 40 1
31 41 1
31 44 1
31 903 1
31 536 1
31 78 1
31 212 1
31 650 1
32 33 1
32 42 1
32 38 1
32 118 1
32 874 1
32 724 1
32 189 1
32 909 1
32 662 1
32 559 1
32 508 1
32 343 1
32 484 1
33 34 1
33 43 1
33 50 1
33 162 1
33 208 1
33 251 1
33 858 1
33 291 1
33 932 1
33 578 1
34 35 1
34 44 1
34 679 1
34 72 1
34 727 1
34 192 1
34 256 1
34 268 1
34 327 1
34 339 1
34 434 1
35 36 1
35 45 1
35 293 1
36 37 1
36 46 1
36 939 1
36 47 1
36 238 1
36 627 1
36 303 1
36 462 1
36 632 1
37 38 1
37 47 1
37 869 1
37 813 1
37 854 1
38 39 1
38 48 1
38 118 1
38 219 1
38 805 1
39 40 1
39 49 1
39 910 1
39 945 1
39 810 1
39 64 1
39 65 1
39 80 1
39 88 1
39 114 1
39 146 1
39 154 1
39 615 1
39 252 1
39 877 1
39 916 1
39 777 1
39 429 1
39 791 1
40 50 1
41 42 1
41 50 1
41 51 1
41 98 1
41 643 1
41 462 1
42 43 1
42 684 1
42 52 1
42 507 1
42 75 1
42 993 1
42 175 1
42 270 1
42 298 1
42 710 1
42 401 1
42 893 1
42 544 1
43 44 1
43 53 1
43 95 1
43 124 1
43 165 1
43 186 1
43 735 1
43 254 1
43 290 1
43 957 1
43 687 1
43 964 1
43 413 1
44 45 1
44 54 1
44 587 1
45 46 1
45 55 1
45 997 1
45 104 1
45 109 1
45 173 1
45 186 1
46 47 1
46 56 1
46 651 1
46 448 1
47 48 1
47 57 1
47 148 1
47 231 1
48 49 1
48 58 1
48 243 1
48 654 1
49 50 1
49 59 1
49 557 1
49 219 1
49 312 1
49 566 1
49 432 1
50 60 1
50 789 1
50 70 1
50 639 1
50 127 1
50 208 1
50 218 1
50 541 1
50 355 1
51 52 1
51 60 1
51 61 1
51 826 1
51 425 1
51 455 1
51 935 1
52 53 1
52 62 1
52 759 1
52 161 1
52 692 1
52 175 1
52 181 1
52 185 1
52 215 1
52 270 1
52 336 1
52 350 1
52 367 1
52 631 1
52 977 1
52 602 1
53 54 1
53 63 1
53 67 1
53 811 1
53 108 1
53 250 1
53 334 1
54 55 1
54 64 1
54 863 1
55 56 1
55 65 1
55 769 1
55 663 1
55 303 1
56 57 1
56 66 1
56 729 1
56 268 1
56 546 1
56 339 1
56 465 1
56 486 1
57 58 1
57 67 1
57 613 1
57 574 1
57 239 1
57 591 1
57 478 1
58 59 1
58 68 1
58 139 1
58 237 1
58 331 1
58 923 1
59 60 1
59 69 1
59 599 1
60 70 1
60 524 1
60 66 1
60 93 1
60 112 1
60 817 1
60 122 1
60 143 1
60 172 1
60 205 1
60 213 1
60 240 1
60 837 1
60 333 1
60 369 1
60 417 1
60 452 1
61 62 1
61 70 1
61 71 1
61 772 1
61 617 1
61 64 1
61 84 1
61 88 1
61 94 1
61 125 1
61 135 1
61 694 1
61 163 1
61 183 1
61 199 1
61 661 1
61 843 1
61 726 1
61 311 1
61 529 1
61 376 1
61 383 1
61 705 1
61 620 1
61 445 1
61 618 1
61 994 1
61 750 1
61 515 1
62 63 1
62 72 1
62 826 1
62 532 1
63 64 1
63 73 1
63 83 1
63 115 1
63 296 1
63 961 1
63 414 1
64 65 1
64 74 1
64 80 1
64 84 1
64 140 1
64 281 1
64 739 1
64 834 1
64 311 1
64 515 1
64 689 1
65 66 1
65 75 1
65 125 1
65 653 1
66 67 1
66 76 1
66 68 1
66 145 1
66 168 1
66 179 1
66 194 1
66 817 1
67 68 1
67 77 1
67 97 1
67 111 1
67 153 1
67 188 1
67 247 1
67 734 1
68 69 1
68 78 1
68 145 1
68 179 1
68 300 1
69 70 1
69 79 1
69 553 1
69 258 1
69 376 1
69 819 1
70 80 1
70 127 1
70 737 1
71 72 1
71 80 1
71 81 1
71 580 1
71 181 1
71 744 1
71 792 1
71 956 1
71 808 1
71 469 1
71 841 1
72 73 1
72 82 1
73 74 1
73 83 1
73 207 1
73 382 1
74 75 1
74 84 1
74 868 1
74 239 1
74 655 1
74 530 1
75 76 1
75 85 1
76 77 1
76 86 1
76 517 1
76 591 1
76 106 1
76 748 1
76 678 1
77 78 1
77 87 1
77 948 1
77 141 1
77 144 1
77 912 1
77 266 1
77 399 1
78 79 1
78 88 1
78 954 1
78 536 1
79 80 1
79 89 1
79 99 1
79 104 1
79 113 1
79 165 1
79 687 1
79 254 1
79 315 1
79 361 1
79 741 1
79 607 1
79 595 1
80 90 1
80 833 1
80 114 1
80 849 1
80 244 1
81 82 1
81 90 1
81 91 1
81 162 1
81 921 1
82 83 1
82 92 1
82 85 1
82 234 1
82 435 1
83 84 1
83 93 1
83 115 1
83 117 1
83 151 1
83 242 1
83 259 1
83 296 1
83 652 1
83 337 1
83 499 1
84 85 1
84 94 1
84 822 1
84 653 1
84 985 1
85 86 1
85 95 1
85 167 1
85 234 1
86 87 1
86 96 1
86 161 1
87 88 1
87 97 1
87 876 1
87 277 1
87 725 1
88 89 1
88 98 1
88 221 1
88 772 1
88 279 1
89 90 1
89 99 1
89 215 1
89 217 1
90 100 1
90 124 1
90 616 1
90 227 1
90 774 1
90 262 1
90 638 1
90 392 1
90 413 1
91 92 1
91 100 1
91 101 1
91 366 1
91 375 1
91 456 1
92 93 1
92 102 1
92 324 1
92 633 1
93 94 1
93 103 1
93 979 1
93 718 1
93 213 1
93 913 1
93 287 1
93 369 1
93 460 1
93 497 1
94 95 1
94 104 1
94 224 1
94 258 1
94 373 1
94 424 1
95 96 1
95 105 1
95 99 1
95 165 1
95 931 1
95 422 1
95 595 1
96 97 1
96 106 1
96 771 1
97 98 1
97 107 1
97 593 1
97 111 1
97 153 1
97 188 1
97 261 1
97 419 1
97 461 1
97 501 1
98 99 1
98 108 1
98 310 1
99 100 1
99 109 1
99 931 1
100 110 1
100 280 1
100 500 1
101 102 1
101 111 1
101 110 1
101 159 1
101 885 1
101 377 1
101 838 1
101 975 1
102 103 1
102 112 1
102 801 1
103 104 1
103 113 1
103 619 1
103 628 1
103 670 1
104 105 1
104 114 1
104 109 1
104 236 1
104 964 1
104 421 1
105 106 1
105 115 1
106 107 1
106 116 1
106 612 1
106 901 1
106 591 1
107 108 1
107 117 1
107 493 1
108 109 1
108 118 1
108 166 1
109 110 1
109 119 1
109 236 1
110 120 1
110 657 1
110 284 1
110 377 1
110 779 1
110 479 1
111 112 1
111 120 1
111 121 1
111 734 1
112 113 1
112 122 1
112 143 1
113 114 1
113 123 1
113 361 1
113 547 1
114 115 1
114 124 1
114 286 1
114 555 1
114 812 1
115 116 1
115 125 1
115 714 1
115 844 1
116 117 1
116 126 1
116 848 1
116 201 1
116 868 1
116 478 1
117 118 1
117 127 1
118 119 1
118 128 1
118 717 1
118 347 1
118 439 1
119 120 1
119 129 1
119 248 1
119 542 1
119 669 1
119 447 1
120 130 1
120 674 1
121 122 1
121 130 1
121 131 1
121 295 1
121 867 1
121 699 1
121 592 1
121 443 1
121 488 1
122 123 1
122 132 1
122 799 1
122 158 1
122 606 1
122 510 1
122 289 1
122 816 1
122 403 1
122 406 1
122 454 1
123 124 1
123 133 1
123 137 1
123 980 1
124 125 1
124 134 1
124 413 1
124 616 1
125 126 1
125 135 1
126 127 1
126 136 1
126 763 1
126 946 1
126 146 1
126 198 1
127 128 1
127 137 1
127 639 1
127 291 1
127 309 1
127 660 1
127 489 1
128 129 1
128 138 1
128 955 1
128 357 1
129 130 1
129 139 1
129 346 1
129 601 1
130 140 1
130 515 1
130 199 1
130 534 1
130 467 1
130 492 1
131 132 1
131 140 1
131 141 1
132 133 1
132 142 1
132 252 1
132 341 1
132 389 1
133 134 1
133 143 1
133 513 1
134 135 1
134 144 1
134 984 1
135 136 1
135 145 1
135 163 1
136 137 1
136 146 1
136 512 1
136 644 1
136 202 1
136 288 1
136 323 1
136 363 1
137 138 1
137 147 1
137 214 1
138 139 1
138 148 1
138 526 1
138 838 1
138 943 1
138 975 1
138 360 1
138 885 1
138 420 1
139 140 1
139 149 1
139 209 1
139 338 1
140 150 1
140 704 1
140 762 1
140 722 1
140 416 1
140 739 1
141 142 1
141 150 1
141 151 1
141 266 1
141 388 1
141 391 1
141 690 1
141 597 1
142 143 1
142 152 1
142 506 1
143 144 1
143 153 1
143 245 1
143 344 1
143 370 1
143 888 1
144 145 1
144 154 1
144 257 1
144 912 1
144 428 1
144 564 1
144 969 1
144 523 1
144 473 1
144 563 1
145 146 1
145 155 1
145 216 1
145 314 1
146 147 1
146 156 1
146 730 1
146 992 1
146 763 1
147 148 1
147 157 1
147 567 1
147 450 1
148 149 1
148 158 1
149 150 1
149 159 1
149 751 1
149 815 1
149 240 1
149 531 1
149 313 1
149 979 1
149 497 1
150 160 1
150 196 1
150 503 1
150 388 1
150 649 1
151 152 1
151 160 1
151 161 1
151 736 1
151 629 1
152 153 1
152 162 1
152 211 1
152 277 1
152 934 1
153 154 1
153 163 1
154 155 1
154 164 1
154 514 1
154 521 1
155 156 1
155 165 1
155 629 1
155 765 1
156 157 1
156 166 1
156 191 1
156 927 1
156 891 1
156 385 1
156 783 1
156 898 1
156 463 1
157 158 1
157 167 1
158 159 1
158 168 1
158 265 1
158 900 1
158 799 1
158 548 1
159 160 1
159 169 1
159 572 1
159 551 1
159 164 1
159 184 1
159 284 1
159 657 1
159 610 1
160 170 1
160 1000 1
161 162 1
161 170 1
161 171 1
162 163 1
162 172 1
163 164 1
163 173 1
163 617 1
163 467 1
164 165 1
164 174 1
165 166 1
165 175 1
165 177 1
166 167 1
166 176 1
166 840 1
166 334 1
167 168 1
167 177 1
167 299 1
168 169 1
168 178 1
169 170 1
169 179 1
169 596 1
169 634 1
169 560 1
169 223 1
170 180 1
170 554 1
170 366 1
170 375 1
171 172 1
171 180 1
171 181 1
171 381 1
172 173 1
172 182 1
173 174 1
173 183 1
173 997 1
174 175 1
174 184 1
175 176 1
175 185 1
175 875 1
175 792 1
175 335 1
175 336 1
176 177 1
176 186 1
177 178 1
177 187 1
177 422 1
178 179 1
178 188 1
178 518 1
178 847 1
179 180 1
179 189 1
179 672 1
179 648 1
180 190 1
181 182 1
181 190 1
181 191 1
181 808 1
181 692 1
181 217 1
181 956 1
182 183 1
182 192 1
183 184 1
183 193 1
183 998 1
184 185 1
184 194 1
184 551 1
185 186 1
185 195 1
185 759 1
186 187 1
186 196 1
187 188 1
187 197 1
187 322 1
188 189 1
188 198 1
189 190 1
189 199 1
189 484 1
190 200 1
190 974 1
191 192 1
191 200 1
191 201 1
192 193 1
192 202 1
192 902 1
192 356 1
193 194 1
193 203 1
193 544 1
194 195 1
194 204 1
194 216 1
195 196 1
195 205 1
195 514 1
195 702 1
195 476 1
196 197 1
196 206 1
196 649 1
196 388 1
196 412 1
197 198 1
197 207 1
198 199 1
198 208 1
199 200 1
199 209 1
199 611 1
199 418 1
199 449 1
200 210 1
201 202 1
201 210 1
201 211 1
201 267 1
201 271 1
201 380 1
202 203 1
202 212 1
202 363 1
202 451 1
203 204 1
203 213 1
204 205 1
204 214 1
204 207 1
204 658 1
204 866 1
205 206 1
205 215 1
205 333 1
206 207 1
206 216 1
206 577 1
206 756 1
207 208 1
207 217 1
208 209 1
208 218 1
208 600 1
209 210 1
209 219 1
210 220 1
211 212 1
211 220 1
211 221 1
212 213 1
212 222 1
212 241 1
213 214 1
213 223 1
213 718 1
213 897 1
213 287 1
213 313 1
213 525 1
213 575 1
214 215 1
214 224 1
214 583 1
214 307 1
215 216 1
215 225 1
215 367 1
216 217 1
216 226 1
216 232 1
216 804 1
217 218 1
217 227 1
218 219 1
218 228 1
218 870 1
218 999 1
219 220 1
219 229 1
219 538 1
219 246 1
219 319 1
220 230 1
220 825 1
221 222 1
221 230 1
221 231 1
222 223 1
222 232 1
222 334 1
223 224 1
223 233 1
223 951 1
223 894 1
224 225 1
224 234 1
224 553 1
225 226 1
225 235 1
225 669 1
225 248 1
225 883 1
225 862 1
226 227 1
226 236 1
226 400 1
226 723 1
226 690 1
227 228 1
227 237 1
228 229 1
228 238 1
228 866 1
229 230 1
229 239 1
229 245 1
229 344 1
229 707 1
230 240 1
230 686 1
231 232 1
231 240 1
231 241 1
232 233 1
232 242 1
232 790 1
232 648 1
233 234 1
233 243 1
234 235 1
234 244 1
235 236 1
235 245 1
235 604 1
235 533 1
235 581 1
235 565 1
235 318 1
235 697 1
236 237 1
236 246 1
236 480 1
236 807 1
237 238 1
237 247 1
238 239 1
238 248 1
238 627 1
239 240 1
239 249 1
239 613 1
240 250 1
240 897 1
241 242 1
241 250 1
241 251 1
241 329 1
241 398 1
242 243 1
242 252 1
243 244 1
243 253 1
244 245 1
244 254 1
244 555 1
245 246 1
245 255 1
246 247 1
246 256 1
246 343 1
246 432 1
246 907 1
247 248 1
247 257 1
247 695 1
247 261 1
247 275 1
248 249 1
248 258 1
248 671 1
248 542 1
248 447 1
249 250 1
249 259 1
249 716 1
250 260 1
250 840 1
251 252 1
251 260 1
251 261 1
251 858 1
252 253 1
252 262 1
252 877 1
252 916 1
253 254 1
253 263 1
253 530 1
254 255 1
254 264 1
254 794 1
254 290 1
255 256 1
255 265 1
255 775 1
255 598 1
255 263 1
255 860 1
255 472 1
256 257 1
256 266 1
256 981 1
256 384 1
257 258 1
257 267 1
258 259 1
258 268 1
259 260 1
259 269 1
259 714 1
259 844 1
260 270 1
261 262 1
261 270 1
261 271 1
261 461 1
262 263 1
262 272 1
262 803 1
263 264 1
263 273 1
263 860 1
264 265 1
264 274 1
264 313 1
265 266 1
265 275 1
265 630 1
265 289 1
265 535 1
266 267 1
266 276 1
267 268 1
267 277 1
267 623 1
267 271 1
267 292 1
267 594 1
267 878 1
267 675 1
268 269 1
268 278 1
268 919 1
268 727 1
268 486 1
269 270 1
269 279 1
269 898 1
269 927 1
269 549 1
269 463 1
270 280 1
270 684 1
271 272 1
271 280 1
271 281 1
271 623 1
271 308 1
271 380 1
272 273 1
272 282 1
272 322 1
273 274 1
273 283 1
274 275 1
274 284 1
274 855 1
275 276 1
275 285 1
275 364 1
276 277 1
276 286 1
276 278 1
277 278 1
277 287 1
277 393 1
278 279 1
278 288 1
279 280 1
279 289 1
279 791 1
279 442 1
280 290 1
280 490 1
281 282 1
281 290 1
281 291 1
282 283 1
282 292 1
283 284 1
283 293 1
283 516 1
283 374 1
284 285 1
284 294 1
284 657 1
285 286 1
285 295 1
285 996 1
285 360 1
286 287 1
286 296 1
286 812 1
286 555 1
287 288 1
287 297 1
287 913 1
288 289 1
288 298 1
288 708 1
288 644 1
289 290 1
289 299 1
289 535 1
289 406 1
290 300 1
290 687 1
290 794 1
290 358 1
291 292 1
291 300 1
291 301 1
292 293 1
292 302 1
292 308 1
293 294 1
293 303 1
294 295 1
294 304 1
295 296 1
295 305 1
296 297 1
296 306 1
297 298 1
297 307 1
297 562 1
298 299 1
298 308 1
299 300 1
299 309 1
300 310 1
301 302 1
301 310 1
301 311 1
301 601 1
301 505 1
301 646 1
302 303 1
302 312 1
302 751 1
302 815 1
302 497 1
302 531 1
303 304 1
303 313 1
303 589 1
303 663 1
304 305 1
304 314 1
305 306 1
305 315 1
305 411 1
306 307 1
306 316 1
306 690 1
307 308 1
307 317 1
308 309 1
308 318 1
308 380 1
308 440 1
309 310 1
309 319 1
309 489 1
310 320 1
311 312 1
311 320 1
311 321 1
312 313 1
312 322 1
313 314 1
313 323 1
313 806 1
314 315 1
314 324 1
315 316 1
315 325 1
315 547 1
316 317 1
316 326 1
316 667 1
316 549 1
317 318 1
317 327 1
317 534 1
317 618 1
317 418 1
318 319 1
318 328 1
318 533 1
318 624 1
318 556 1
318 395 1
318 793 1
319 320 1
319 329 1
319 805 1
320 330 1
321 322 1
321 330 1
321 331 1
322 323 1
322 332 1
322 899 1
323 324 1
323 333 1
323 345 1
324 325 1
324 334 1
325 326 1
325 335 1
326 327 1
326 336 1
326 814 1
327 328 1
327 337 1
327 715 1
327 679 1
327 487 1
328 329 1
328 338 1
328 681 1
329 330 1
329 339 1
329 398 1
329 647 1
330 340 1
330 654 1
330 861 1
331 332 1
331 340 1
331 341 1
332 333 1
332 342 1
332 644 1
333 334 1
333 343 1
333 417 1
334 335 1
334 344 1
334 811 1
335 336 1
335 345 1
335 792 1
335 427 1
336 337 1
336 346 1
337 338 1
337 347 1
338 339 1
338 348 1
339 340 1
339 349 1
339 942 1
339 465 1
340 350 1
340 881 1
340 372 1
340 528 1
341 342 1
341 350 1
341 351 1
342 343 1
342 352 1
343 344 1
343 353 1
343 940 1
343 410 1
344 345 1
344 354 1
344 370 1
345 346 1
345 355 1
345 656 1
345 512 1
346 347 1
346 356 1
347 348 1
347 357 1
348 349 1
348 358 1
348 588 1
349 350 1
349 359 1
350 360 1
350 875 1
351 352 1
351 360 1
351 361 1
351 640 1
352 353 1
352 362 1
353 354 1
353 363 1
353 935 1
354 355 1
354 364 1
354 981 1
354 474 1
354 482 1
354 487 1
355 356 1
355 365 1
355 541 1
355 789 1
356 357 1
356 366 1
357 358 1
357 367 1
357 780 1
357 507 1
357 636 1
358 359 1
358 368 1
358 892 1
358 794 1
358 409 1
359 360 1
359 369 1
359 496 1
360 370 1
360 496 1
361 362 1
361 370 1
361 371 1
362 363 1
362 372 1
363 364 1
363 373 1
363 696 1
363 865 1
364 365 1
364 374 1
364 464 1
365 366 1
365 375 1
365 801 1
366 367 1
366 376 1
366 795 1
366 554 1
367 368 1
367 377 1
367 626 1
368 369 1
368 378 1
368 903 1
368 647 1
369 370 1
369 379 1
369 837 1
369 390 1
370 380 1
371 372 1
371 380 1
371 381 1
372 373 1
372 382 1
373 374 1
373 383 1
374 375 1
374 384 1
374 415 1
375 376 1
375 385 1
375 585 1
376 377 1
376 386 1
376 819 1
376 698 1
377 378 1
377 387 1
378 379 1
378 388 1
379 380 1
379 389 1
380 390 1
381 382 1
381 390 1
381 391 1
382 383 1
382 392 1
383 384 1
383 393 1
383 611 1
383 750 1
383 911 1
384 385 1
384 394 1
384 396 1
385 386 1
385 395 1
386 387 1
386 396 1
386 495 1
387 388 1
387 397 1
387 444 1
388 389 1
388 398 1
388 649 1
389 390 1
389 399 1
389 429 1
389 828 1
390 400 1
391 392 1
391 400 1
391 401 1
392 393 1
392 402 1
392 803 1
392 886 1
393 394 1
393 403 1
393 934 1
394 395 1
394 404 1
395 396 1
395 405 1
395 831 1
395 624 1
396 397 1
396 406 1
396 494 1
397 398 1
397 407 1
397 659 1
398 399 1
398 408 1
399 400 1
399 409 1
399 969 1
399 564 1
400 410 1
400 543 1
400 906 1
401 402 1
401 410 1
401 411 1
401 683 1
401 744 1
401 700 1
402 403 1
402 412 1
402 882 1
403 404 1
403 413 1
403 548 1
403 766 1
404 405 1
404 414 1
404 511 1
405 406 1
405 415 1
406 407 1
406 416 1
406 510 1
407 408 1
407 417 1
408 409 1
408 418 1
409 410 1
409 419 1
410 420 1
410 538 1
410 940 1
411 412 1
411 420 1
411 421 1
412 413 1
412 422 1
412 800 1
412 503 1
413 414 1
413 423 1
413 638 1
414 415 1
414 424 1
414 961 1
415 416 1
415 425 1
416 417 1
416 426 1
417 418 1
417 427 1
418 419 1
418 428 1
419 420 1
419 429 1
419 712 1
420 430 1
420 526 1
421 422 1
421 430 1
421 431 1
421 997 1
422 423 1
422 432 1
422 595 1
423 424 1
423 433 1
424 425 1
424 434 1
425 426 1
425 435 1
426 427 1
426 436 1
426 851 1
427 428 1
427 437 1
427 469 1
428 429 1
428 438 1
428 966 1
428 948 1
429 430 1
429 439 1
429 945 1
429 520 1
430 440 1
430 435 1
431 432 1
431 440 1
431 441 1
432 433 1
432 442 1
432 557 1
432 907 1
433 434 1
433 443 1
434 435 1
434 444 1
435 436 1
435 445 1
436 437 1
436 446 1
437 438 1
437 447 1
437 731 1
437 633 1
437 991 1
438 439 1
438 448 1
439 440 1
439 449 1
440 450 1
440 477 1
441 442 1
441 450 1
441 451 1
442 443 1
442 452 1
443 444 1
443 453 1
443 592 1
443 622 1
444 445 1
444 454 1
444 987 1
445 446 1
445 455 1
445 553 1
446 447 1
446 456 1
447 448 1
447 457 1
447 570 1
447 719 1
447 542 1
448 449 1
448 458 1
449 450 1
449 459 1
450 460 1
451 452 1
451 460 1
451 461 1
451 522 1
451 502 1
452 453 1
452 462 1
453 454 1
453 463 1
453 767 1
453 667 1
454 455 1
454 464 1
454 871 1
455 456 1
455 465 1
456 457 1
456 466 1
457 458 1
457 467 1
458 459 1
458 468 1
459 460 1
459 469 1
460 470 1
460 576 1
461 462 1
461 470 1
461 471 1
462 463 1
462 472 1
463 464 1
463 473 1
463 767 1
464 465 1
464 474 1
465 466 1
465 475 1
465 546 1
465 942 1
466 467 1
466 476 1
467 468 1
467 477 1
468 469 1
468 478 1
469 470 1
469 479 1
469 845 1
469 710 1
470 480 1
470 839 1
470 508 1
471 472 1
471 480 1
471 481 1
471 770 1
472 473 1
472 482 1
472 756 1
473 474 1
473 483 1
473 563 1
474 475 1
474 484 1
475 476 1
475 485 1
475 518 1
476 477 1
476 486 1
476 514 1
476 702 1
477 478 1
477 487 1
478 479 1
478 488 1
478 926 1
479 480 1
479 489 1
479 642 1
479 610 1
480 490 1
481 482 1
481 490 1
481 491 1
482 483 1
482 492 1
483 484 1
483 493 1
484 485 1
484 494 1
485 486 1
485 495 1
486 487 1
486 496 1
487 488 1
487 497 1
487 673 1
487 981 1
487 852 1
488 489 1
488 498 1
489 490 1
489 499 1
489 973 1
490 500 1
491 492 1
491 500 1
491 501 1
491 586 1
492 493 1
492 502 1
492 967 1
492 722 1
492 704 1
493 494 1
493 503 1
494 495 1
494 504 1
495 496 1
495 505 1
496 497 1
496 506 1
496 996 1
497 498 1
497 507 1
497 751 1
497 693 1
498 499 1
498 508 1
498 933 1
498 579 1
499 500 1
499 509 1
500 510 1
501 502 1
501 510 1
501 511 1
501 593 1
501 569 1
502 503 1
502 512 1
502 635 1
503 504 1
503 513 1
503 800 1
504 505 1
504 514 1
504 947 1
505 506 1
505 515 1
505 752 1
505 646 1
505 601 1
506 507 1
506 516 1
507 508 1
507 517 1
507 636 1
507 955 1
508 509 1
508 518 1
509 510 1
509 519 1
510 520 1
511 512 1
511 520 1
511 521 1
512 513 1
512 522 1
512 656 1
513 514 1
513 523 1
514 515 1
514 524 1
515 516 1
515 525 1
516 517 1
516 526 1
517 518 1
517 527 1
517 678 1
518 519 1
518 528 1
518 847 1
519 520 1
519 529 1
519 947 1
520 530 1
520 728 1
521 522 1
521 530 1
521 531 1
521 821 1
522 523 1
522 532 1
523 524 1
523 533 1
524 525 1
524 534 1
525 526 1
525 535 1
525 806 1
526 527 1
526 536 1
527 528 1
527 537 1
527 632 1
528 529 1
528 538 1
528 764 1
529 530 1
529 539 1
529 843 1
530 540 1
531 532 1
531 540 1
531 541 1
532 533 1
532 542 1
533 534 1
533 543 1
533 793 1
533 624 1
534 535 1
534 544 1
534 618 1
535 536 1
535 545 1
536 537 1
536 546 1
536 954 1
536 650 1
537 538 1
537 547 1
537 740 1
538 539 1
538 548 1
539 540 1
539 549 1
539 546 1
539 919 1
540 550 1
541 542 1
541 550 1
541 551 1
541 949 1
542 543 1
542 552 1
542 570 1
542 809 1
543 544 1
543 553 1
543 906 1
544 545 1
544 554 1
545 546 1
545 555 1
546 547 1
546 556 1
547 548 1
547 557 1
548 549 1
548 558 1
548 799 1
549 550 1
549 559 1
549 573 1
550 560 1
551 552 1
551 560 1
551 561 1
552 553 1
552 562 1
552 995 1
552 821 1
552 558 1
553 554 1
553 563 1
554 555 1
554 564 1
555 556 1
555 565 1
555 812 1
556 557 1
556 566 1
556 609 1
556 659 1
556 668 1
556 842 1
557 558 1
557 567 1
558 559 1
558 568 1
559 560 1
559 569 1
560 570 1
560 760 1
560 596 1
561 562 1
561 570 1
561 571 1
561 917 1
562 563 1
562 572 1
563 564 1
563 573 1
564 565 1
564 574 1
565 566 1
565 575 1
565 914 1
565 830 1
565 950 1
565 697 1
566 567 1
566 576 1
567 568 1
567 577 1
568 569 1
568 578 1
569 570 1
569 579 1
570 580 1
570 671 1
570 719 1
571 572 1
571 580 1
571 581 1
572 573 1
572 582 1
573 574 1
573 583 1
574 575 1
574 584 1
574 983 1
575 576 1
575 585 1
576 577 1
576 586 1
577 578 1
577 587 1
577 775 1
577 756 1
578 579 1
578 588 1
578 932 1
579 580 1
579 589 1
580 590 1
580 744 1
581 582 1
581 590 1
581 591 1
582 583 1
582 592 1
583 584 1
583 593 1
584 585 1
584 594 1
585 586 1
585 595 1
586 587 1
586 596 1
587 588 1
587 597 1
588 589 1
588 598 1
589 590 1
589 599 1
590 600 1
590 668 1
590 609 1
591 592 1
591 600 1
591 601 1
591 612 1
592 593 1
592 602 1
592 867 1
592 699 1
593 594 1
593 603 1
594 595 1
594 604 1
594 675 1
595 596 1
595 605 1
596 597 1
596 606 1
596 760 1
597 598 1
597 607 1
598 599 1
598 608 1
599 600 1
599 609 1
600 610 1
601 602 1
601 610 1
601 611 1
602 603 1
602 612 1
602 692 1
603 604 1
603 613 1
604 605 1
604 614 1
605 606 1
605 615 1
605 685 1
606 607 1
606 616 1
607 608 1
607 617 1
608 609 1
608 618 1
608 898 1
608 783 1
609 610 1
609 619 1
610 620 1
610 846 1
611 612 1
611 620 1
611 621 1
611 750 1
612 613 1
612 622 1
613 614 1
613 623 1
613 829 1
614 615 1
614 624 1
615 616 1
615 625 1
615 828 1
616 617 1
616 626 1
616 701 1
617 618 1
617 627 1
617 726 1
618 619 1
618 628 1
618 994 1
619 620 1
619 629 1
620 630 1
621 622 1
621 630 1
621 631 1
621 785 1
621 733 1
622 623 1
622 632 1
623 624 1
623 633 1
624 625 1
624 634 1
624 793 1
625 626 1
625 635 1
626 627 1
626 636 1
627 628 1
627 637 1
628 629 1
628 638 1
629 630 1
629 639 1
630 640 1
631 632 1
631 640 1
631 641 1
632 633 1
632 642 1
633 634 1
633 643 1
633 706 1
634 635 1
634 644 1
634 760 1
635 636 1
635 645 1
636 637 1
636 646 1
636 993 1
637 638 1
637 647 1
638 639 1
638 648 1
638 957 1
639 640 1
639 649 1
639 999 1
639 660 1
640 650 1
640 711 1
641 642 1
641 650 1
641 651 1
641 863 1
641 785 1
641 905 1
641 733 1
642 643 1
642 652 1
642 745 1
643 644 1
643 653 1
644 645 1
644 654 1
645 646 1
645 655 1
646 647 1
646 656 1
646 752 1
647 648 1
647 657 1
648 649 1
648 658 1
649 650 1
649 659 1
650 660 1
651 652 1
651 660 1
651 661 1
652 653 1
652 662 1
653 654 1
653 663 1
653 661 1
653 705 1
654 655 1
654 664 1
654 861 1
655 656 1
655 665 1
656 657 1
656 666 1
657 658 1
657 667 1
658 659 1
658 668 1
659 660 1
659 669 1
659 842 1
660 670 1
661 662 1
661 670 1
661 671 1
662 663 1
662 672 1
662 677 1
663 664 1
663 673 1
664 665 1
664 674 1
665 666 1
665 675 1
665 732 1
665 851 1
666 667 1
666 676 1
667 668 1
667 677 1
668 669 1
668 678 1
669 670 1
669 679 1
670 680 1
671 672 1
671 680 1
671 681 1
672 673 1
672 682 1
672 746 1
673 674 1
673 683 1
673 852 1
674 675 1
674 684 1
675 676 1
675 685 1
676 677 1
676 686 1
676 739 1
677 678 1
677 687 1
678 679 1
678 688 1
679 680 1
679 689 1
680 690 1
681 682 1
681 690 1
681 691 1
681 738 1
682 683 1
682 692 1
683 684 1
683 693 1
683 700 1
684 685 1
684 694 1
685 686 1
685 695 1
686 687 1
686 696 1
687 688 1
687 697 1
687 735 1
687 741 1
688 689 1
688 698 1
689 690 1
689 699 1
690 700 1
691 692 1
691 700 1
691 701 1
692 693 1
692 702 1
693 694 1
693 703 1
694 695 1
694 704 1
695 696 1
695 705 1
696 697 1
696 706 1
697 698 1
697 707 1
697 914 1
697 830 1
698 699 1
698 708 1
699 700 1
699 709 1
699 867 1
700 710 1
701 702 1
701 710 1
701 711 1
701 936 1
702 703 1
702 712 1
703 704 1
703 713 1
704 705 1
704 714 1
705 706 1
705 715 1
706 707 1
706 716 1
706 731 1
707 708 1
707 717 1
708 709 1
708 718 1
709 710 1
709 719 1
710 720 1
711 712 1
711 720 1
711 721 1
712 713 1
712 722 1
713 714 1
713 723 1
714 715 1
714 724 1
715 716 1
715 725 1
715 729 1
716 717 1
716 726 1
716 755 1
717 718 1
717 727 1
718 719 1
718 728 1
718 913 1
719 720 1
719 729 1
720 730 1
721 722 1
721 730 1
721 731 1
722 723 1
722 732 1
722 967 1
723 724 1
723 733 1
724 725 1
724 734 1
725 726 1
725 735 1
726 727 1
726 736 1
727 728 1
727 737 1
728 729 1
728 738 1
729 730 1
729 739 1
730 740 1
731 732 1
731 740 1
731 741 1
732 733 1
732 742 1
732 851 1
733 734 1
733 743 1
734 735 1
734 744 1
735 736 1
735 745 1
736 737 1
736 746 1
737 738 1
737 747 1
738 739 1
738 748 1
739 740 1
739 749 1
739 762 1
740 750 1
741 742 1
741 750 1
741 751 1
741 797 1
742 743 1
742 752 1
743 744 1
743 753 1
744 745 1
744 754 1
745 746 1
745 755 1
746 747 1
746 756 1
747 748 1
747 757 1
748 749 1
748 758 1
749 750 1
749 759 1
750 760 1
751 752 1
751 760 1
751 761 1
751 815 1
752 753 1
752 762 1
752 781 1
753 754 1
753 763 1
754 755 1
754 764 1
755 756 1
755 765 1
756 757 1
756 766 1
757 758 1
757 767 1
758 759 1
758 768 1
758 771 1
759 760 1
759 769 1
760 770 1
761 762 1
761 770 1
761 771 1
762 763 1
762 772 1
763 764 1
763 773 1
763 859 1
764 765 1
764 774 1
765 766 1
765 775 1
766 767 1
766 776 1
767 768 1
767 777 1
768 769 1
768 778 1
769 770 1
769 779 1
770 780 1
771 772 1
771 780 1
771 781 1
772 773 1
772 782 1
773 774 1
773 783 1
774 775 1
774 784 1
775 776 1
775 785 1
776 777 1
776 786 1
777 778 1
777 787 1
778 779 1
778 788 1
779 780 1
779 789 1
780 790 1
781 782 1
781 790 1
781 791 1
782 783 1
782 792 1
783 784 1
783 793 1
784 785 1
784 794 1
785 786 1
785 795 1
786 787 1
786 796 1
787 788 1
787 797 1
788 789 1
788 798 1
789 790 1
789 799 1
790 800 1
791 792 1
791 800 1
791 801 1
792 793 1
792 802 1
793 794 1
793 803 1
794 795 1
794 804 1
794 892 1
795 796 1
795 805 1
796 797 1
796 806 1
797 798 1
797 807 1
798 799 1
798 808 1
798 988 1
799 800 1
799 809 1
799 816 1
800 810 1
801 802 1
801 810 1
801 811 1
802 803 1
802 812 1
803 804 1
803 813 1
804 805 1
804 814 1
805 806 1
805 815 1
806 807 1
806 816 1
807 808 1
807 817 1
808 809 1
808 818 1
808 890 1
808 841 1
809 810 1
809 819 1
810 820 1
811 812 1
811 820 1
811 821 1
811 824 1
812 813 1
812 822 1
813 814 1
813 823 1
814 815 1
814 824 1
815 816 1
815 825 1
816 817 1
816 826 1
817 818 1
817 827 1
818 819 1
818 828 1
818 836 1
819 820 1
819 829 1
820 830 1
821 822 1
821 830 1
821 831 1
822 823 1
822 832 1
823 824 1
823 833 1
824 825 1
824 834 1
825 826 1
825 835 1
826 827 1
826 836 1
827 828 1
827 837 1
827 970 1
828 829 1
828 838 1
829 830 1
829 839 1
830 840 1
830 950 1
830 914 1
831 832 1
831 840 1
831 841 1
832 833 1
832 842 1
832 834 1
833 834 1
833 843 1
834 835 1
834 844 1
835 836 1
835 845 1
836 837 1
836 846 1
837 838 1
837 847 1
838 839 1
838 848 1
839 840 1
839 849 1
840 850 1
841 842 1
841 850 1
841 851 1
841 922 1
842 843 1
842 852 1
843 844 1
843 853 1
844 845 1
844 854 1
845 846 1
845 855 1
846 847 1
846 856 1
847 848 1
847 857 1
848 849 1
848 858 1
848 868 1
849 850 1
849 859 1
850 860 1
851 852 1
851 860 1
851 861 1
851 965 1
852 853 1
852 862 1
853 854 1
853 863 1
854 855 1
854 864 1
854 869 1
855 856 1
855 865 1
856 857 1
856 866 1
857 858 1
857 867 1
858 859 1
858 868 1
859 860 1
859 869 1
859 946 1
860 870 1
861 862 1
861 870 1
861 871 1
862 863 1
862 872 1
862 883 1
863 864 1
863 873 1
864 865 1
864 874 1
865 866 1
865 875 1
866 867 1
866 876 1
867 868 1
867 877 1
868 869 1
868 878 1
869 870 1
869 879 1
870 880 1
871 872 1
871 880 1
871 881 1
872 873 1
872 882 1
873 874 1
873 883 1
874 875 1
874 884 1
875 876 1
875 885 1
876 877 1
876 886 1
877 878 1
877 887 1
877 916 1
878 879 1
878 888 1
879 880 1
879 889 1
880 890 1
881 882 1
881 890 1
881 891 1
882 883 1
882 892 1
883 884 1
883 893 1
884 885 1
884 894 1
885 886 1
885 895 1
886 887 1
886 896 1
886 982 1
887 888 1
887 897 1
887 889 1
887 894 1
887 951 1
888 889 1
888 898 1
889 890 1
889 899 1
890 900 1
891 892 1
891 900 1
891 901 1
892 893 1
892 902 1
893 894 1
893 903 1
894 895 1
894 904 1
895 896 1
895 905 1
896 897 1
896 906 1
897 898 1
897 907 1
898 899 1
898 908 1
899 900 1
899 909 1
900 910 1
901 902 1
901 910 1
901 911 1
902 903 1
902 912 1
903 904 1
903 913 1
904 905 1
904 914 1
905 906 1
905 915 1
906 907 1
906 916 1
907 908 1
907 917 1
908 909 1
908 918 1
909 910 1
909 919 1
910 920 1
911 912 1
911 920 1
911 921 1
912 913 1
912 922 1
912 948 1
913 914 1
913 923 1
914 915 1
914 924 1
915 916 1
915 925 1
916 917 1
916 926 1
917 918 1
917 927 1
918 919 1
918 928 1
918 943 1
918 937 1
919 920 1
919 929 1
920 930 1
921 922 1
921 930 1
921 931 1
922 923 1
922 932 1
923 924 1
923 933 1
924 925 1
924 934 1
925 926 1
925 935 1
925 975 1
926 927 1
926 936 1
927 928 1
927 937 1
928 929 1
928 938 1
929 930 1
929 939 1
930 940 1
931 932 1
931 940 1
931 941 1
932 933 1
932 942 1
933 934 1
933 943 1
934 935 1
934 944 1
935 936 1
935 945 1
936 937 1
936 946 1
937 938 1
937 947 1
938 939 1
938 948 1
939 940 1
939 949 1
940 950 1
941 942 1
941 950 1
941 951 1
942 943 1
942 952 1
943 944 1
943 953 1
944 945 1
944 954 1
945 946 1
945 955 1
946 947 1
946 956 1
947 948 1
947 957 1
948 949 1
948 958 1
949 950 1
949 959 1
950 960 1
951 952 1
951 960 1
951 961 1
952 953 1
952 962 1
953 954 1
953 963 1
954 955 1
954 964 1
955 956 1
955 965 1
956 957 1
956 966 1
957 958 1
957 967 1
958 959 1
958 968 1
959 960 1
959 969 1
960 970 1
961 962 1
961 970 1
961 971 1
962 963 1
962 972 1
963 964 1
963 973 1
964 965 1
964 974 1
965 966 1
965 975 1
966 967 1
966 976 1
967 968 1
967 977 1
968 969 1
968 978 1
969 970 1
969 979 1
970 980 1
971 972 1
971 980 1
971 981 1
972 973 1
972 982 1
973 974 1
973 983 1
974 975 1
974 984 1
975 976 1
975 985 1
976 977 1
976 986 1
977 978 1
977 987 1
978 979 1
978 988 1
979 980 1
979 989 1
980 990 1
981 982 1
981 990 1
981 991 1
982 983 1
982 992 1
983 984 1
983 993 1
984 985 1
984 994 1
985 986 1
985 995 1
986 987 1
986 996 1
987 988 1
987 997 1
988 989 1
988 998 1
989 990 1
989 999 1
990 1000 1
991 992 1
991 1000 1
992 993 1
993 994 1
994 995 1
995 996 1
996 997 1
997 998 1
998 999 1
999 1000 1
